sat
(:max-memory          18.61
 :memory              17.66
 :num-allocs          1524626513
 :rlimit-count        2247766
 :sls-constraints     3860
 :sls-ddfw-flips      1300852.00
 :sls-ddfw-reinits    16
 :sls-ddfw-restarts   1130
 :sls-ddfw-shifts     618977.00
 :sls.euf-conflict    3860
 :solve-eqs-elim-vars 5
 :solve-eqs-steps     12
 :time                1.88
 :total-time          1.88)
